SAT
-99 10 -33 -97 -41 85 -20 81 -69 -44 7 -54 -61 79 -27 -95 31 12 100 6 -2 -34 -3 -8 43 -1 9 -4 -71 -39 -60 -11 14 -51 -45 -77 -90 59 67 -70 -63 -58 19 46 57 38 72 23 -86 84 37 68 98 42 30 -35 73 5 89 94 -50 -64 29 26 -53 36 52 -32 -82 -47 92 -56 28 13 -55 76 21 74 -83 -25 24 -87 -88 96 78 66 -17 18 65 -80 62 16 40 -93 22 49 -91 -75 48 -15 0
